10	10
8 169	7 60	1 106	4 52	0 35	6 2	5 137	2 125	9 84	3 113
0 166	4 151	7 139	2 25	1 34	3 32	5 200	9 171	8 161	6 25
8 138	0 166	6 75	9 28	5 123	3 19	2 184	7 14	1 49	4 9
3 152	5 63	4 87	6 138	7 113	1 188	2 116	8 74	9 115	0 180
1 69	2 148	8 189	9 56	5 155	0 159	7 37	3 108	4 112	6 175
6 178	2 52	8 183	1 41	0 78	5 65	3 26	9 153	7 1	4 179
9 25	3 14	7 120	4 177	8 14	6 120	0 85	5 100	2 103	1 32
5 78	1 33	4 96	6 112	7 18	3 127	0 18	8 6	9 10	2 190
3 4	0 3	9 182	8 130	7 198	5 138	2 175	1 23	4 186	6 83
3 150	7 22	2 65	8 109	1 54	9 163	6 151	5 17	0 54	4 192
